(set-logic QF_BV)
(declare-fun _substvar_201_ () (_ BitVec 1))
(declare-fun _substvar_169_ () (_ BitVec 47))
(declare-fun _substvar_331_ () Bool)
(declare-fun _substvar_334_ () Bool)
(declare-fun _substvar_213_ () (_ BitVec 47))
(declare-fun _substvar_95_ () (_ BitVec 47))
(declare-fun _substvar_206_ () (_ BitVec 47))
(declare-fun _substvar_200_ () (_ BitVec 47))
(declare-fun _substvar_94_ () (_ BitVec 47))
(assert (and true true true true true true true true true true true true true true true true true true true true true true true true true true true true true true true true true true true true true true true true true true true true true true true true true true true true true true true true true true true true true true true true true true true true true true true true true true true true true true true true true true true true true true true true true true true true true true true true true true true true true true true true true true true true true true true true true true true true true true true true true true true true true true true true true true true true true true true true true true true true true true true true true true true true true true true true true true true true true true true true true true true true true true true true true true true true true true true true true true true true true true true true true true true true true true true true true true true true true true true true true true true true true true true true true true true true true true true true true true true true true (ite _substvar_334_ (= _substvar_206_ (_ bv0 47)) (= _substvar_206_ (concat (_ bv0 46) _substvar_201_))) (ite _substvar_331_ (= _substvar_200_ (_ bv0 47)) (= _substvar_200_ (concat ((_ extract 45 0) _substvar_206_) (bvxor ((_ extract 46 46) _substvar_206_) ((_ extract 41 41) _substvar_206_))))) (= _substvar_95_ (concat ((_ extract 45 0) _substvar_200_) (_ bv0 1))) true true true true true true true true true true true true true true true true true true true true true true true true true true true true true true true true true true true true true true true true true true true true true true true true true true true true true true true true true true true true true true true true true true true true true true true true true true true true true true true true true true true true true true true true true true true true true true true true true true true true true true true true true true true true true (ite _substvar_334_ true (= _substvar_213_ (_ bv0 47))) (ite _substvar_331_ true (= _substvar_169_ (concat ((_ extract 45 0) _substvar_213_) (_ bv0 1)))) (= _substvar_94_ (concat (_ bv0 46) (bvxor (_ bv0 1) ((_ extract 41 41) _substvar_169_)))) true true true true true true true true true true true true true true true true true true true true true true true true true true true true true true true true true true true true true true true true true true true true true true true true true true true true true true true true true true true true true true true true true true true true true true true true true true true true true true true true true true true true true true true true true true true true true true true true true true true true true true true true true true true true true true true true true true true true true true true true true true (= (or (= (_ bv0 47) _substvar_95_) (= (_ bv0 47) _substvar_94_) false false false false) false)))
(check-sat)
(exit)
